(set-info :smt-lib-version 2.6)
(set-logic QF_UF)
(set-info :source |
Generated by: Aman Goel (amangoel@umich.edu), Karem A. Sakallah (karem@umich.edu)
Generated on: 2018-04-06

Generated by the tool Averroes 2 (successor of [1]) which implements safety property
verification on hardware systems.

This SMT problem belongs to a set of SMT problems generated by applying Averroes 2
to benchmarks derived from [2-5].

A total of 412 systems (345 from [2], 19 from [3], 26 from [4], 22 from [5]) were
syntactically converted from their original formats (using [6, 7]), and given to 
Averroes 2 to perform property checking with abstraction (wide bit-vectors -> terms, 
wide operators -> UF) using SMT solvers [8, 9].

[1] Lee S., Sakallah K.A. (2014) Unbounded Scalable Verification Based on Approximate
Property-Directed Reachability and Datapath Abstraction. In: Biere A., Bloem R. (eds)
Computer Aided Verification. CAV 2014. Lecture Notes in Computer Science, vol 8559.
Springer, Cham
[2] http://fmv.jku.at/aiger/index.html#beem
[3] http://www.cs.cmu.edu/~modelcheck/vcegar
[4] http://www.cprover.org/hardware/v2c
[5] http://github.com/aman-goel/verilogbench
[6] http://www.clifford.at/yosys
[7] http://github.com/chengyinwu/V3
[8] http://github.com/Z3Prover/z3
[9] http://github.com/SRI-CSL/yices2

id: eq_sdp_v6
query-maker: "Z3"
query-time: 4.040000 ms
query-class: abstract
query-category: assume
query-type: mus_core
status: unsat
|)
(set-info :license "https://creativecommons.org/licenses/by/4.0/")
(set-info :category "industrial")

; 
(set-info :status sat)
(declare-sort utt8 0)
(declare-fun z$n164s8 () utt8)
(declare-fun z$n62s8 () utt8)
(declare-fun z$n66s8 () utt8)
(declare-fun z$n193s8 () utt8)
(declare-fun z$n19s8 () utt8)
(declare-fun z$n126s8 () utt8)
(declare-fun z$n132s8 () utt8)
(declare-fun z$n14s8 () utt8)
(declare-fun z$n235s8 () utt8)
(declare-fun z$n131s8 () utt8)
(declare-fun z$n161s8 () utt8)
(declare-fun z$n64s8 () utt8)
(declare-fun z$n238s8 () utt8)
(declare-fun z$n110s8 () utt8)
(declare-fun z$n192s8 () utt8)
(declare-fun z$n223s8 () utt8)
(declare-fun z$n28s8 () utt8)
(declare-fun z$n68s8 () utt8)
(declare-fun z$n253s8 () utt8)
(declare-fun z$n127s8 () utt8)
(declare-fun z$n142s8 () utt8)
(declare-fun z$n24s8 () utt8)
(declare-fun z$n11s8 () utt8)
(declare-fun z$n33s8 () utt8)
(declare-fun z$n89s8 () utt8)
(declare-fun z$n255s8 () utt8)
(declare-fun z$n194s8 () utt8)
(declare-fun z$n217s8 () utt8)
(declare-fun z$n95s8 () utt8)
(declare-fun z$n17s8 () utt8)
(declare-fun z$n124s8 () utt8)
(declare-fun z$n242s8 () utt8)
(declare-fun z$n134s8 () utt8)
(declare-fun z$n41s8 () utt8)
(declare-fun z$n129s8 () utt8)
(declare-fun z$n144s8 () utt8)
(declare-fun z$n72s8 () utt8)
(declare-fun z$n65s8 () utt8)
(declare-fun z$n138s8 () utt8)
(declare-fun z$n128s8 () utt8)
(declare-fun z$n141s8 () utt8)
(declare-fun z$n13s8 () utt8)
(declare-fun z$n204s8 () utt8)
(declare-fun z$n6s8 () utt8)
(declare-fun z$n3s8 () utt8)
(declare-fun z$n16s8 () utt8)
(declare-fun z$n4s8 () utt8)
(declare-fun z$n248s8 () utt8)
(declare-fun z$n98s8 () utt8)
(declare-fun z$n252s8 () utt8)
(declare-fun z$n96s8 () utt8)
(declare-fun z$n254s8 () utt8)
(declare-fun z$n100s8 () utt8)
(declare-fun z$n10s8 () utt8)
(declare-fun z$n97s8 () utt8)
(declare-fun z$n187s8 () utt8)
(declare-fun z$n8s8 () utt8)
(declare-fun z$n231s8 () utt8)
(declare-fun z$n7s8 () utt8)
(declare-fun z$n5s8 () utt8)
(declare-fun z$n2s8 () utt8)
(declare-fun z$n140s8 () utt8)
(declare-fun z$n123s8 () utt8)
(declare-fun z$n26s8 () utt8)
(declare-fun z$n158s8 () utt8)
(declare-fun z$n196s8 () utt8)
(declare-fun z$n48s8 () utt8)
(declare-fun z$n137s8 () utt8)
(declare-fun z$n1s8 () utt8)
(declare-fun z$n0s8 () utt8)
(declare-fun im.p1_a () utt8)
(declare-fun im.p1_b () utt8)
(declare-fun im.p1_c () utt8)
(declare-fun im.p2_c () utt8)
(declare-fun im.p2_m () utt8)
(declare-fun im.p3_n () utt8)
(declare-fun ra1 () utt8)
(declare-fun ra2 () utt8)
(declare-fun ra3 () utt8)
(declare-fun rb1 () utt8)
(declare-fun rb2 () utt8)
(declare-fun rb3 () utt8)
(declare-fun rc1 () utt8)
(declare-fun rc2 () utt8)
(declare-fun rc3 () utt8)
(declare-fun Add_8_8_8 (utt8 utt8) utt8)
(declare-fun z$140 () utt8)
(declare-fun Sub_8_8_8 (utt8 utt8) utt8)
(declare-fun z$142 () utt8)
(declare-fun z$144 () utt8)
(declare-fun z$146 () utt8)
(declare-fun z$148 () utt8)
(declare-fun z$150 () utt8)
(declare-fun z$44 () utt8)
(declare-fun rb2$next () utt8)
(declare-fun z$57 () utt8)
(declare-fun rc2$next () utt8)
(declare-fun z$84 () utt8)
(declare-fun ra2$next () utt8)
(declare-fun BitWiseAnd_8_8_8 (utt8 utt8) utt8)
(declare-fun z$110 () utt8)
(declare-fun z$113 () utt8)
(declare-fun z$115 () utt8)
(declare-fun z$117 () utt8)
(declare-fun z$119 () utt8)
(declare-fun im.p2_m$next () utt8)
(declare-fun z$123 () utt8)
(declare-fun im.p2_c$next () utt8)
(declare-fun ra3$next () utt8)
(declare-fun rb3$next () utt8)
(declare-fun z$168 () utt8)
(declare-fun z$170 () utt8)
(declare-fun z$172 () utt8)
(declare-fun rc3$next () utt8)
(declare-fun z$174 () utt8)
(declare-fun z$176 () utt8)
(declare-fun z$178 () utt8)
(declare-fun im.p3_n$next () utt8)
(declare-fun im.p1_a$next () utt8)
(declare-fun z$350 () utt8)
(declare-fun c () utt8)
(declare-fun z$53 () utt8)
(declare-fun rc1$next () utt8)
(declare-fun a () utt8)
(declare-fun z$80 () utt8)
(declare-fun ra1$next () utt8)
(declare-fun b () utt8)
(declare-fun z$93 () utt8)
(declare-fun rb1$next () utt8)
(declare-fun im.p1_b$next () utt8)
(declare-fun im.p1_c$next () utt8)
(declare-fun z$718 () utt8)
(declare-fun z$48 () utt8)
(declare-fun z$61 () utt8)
(declare-fun z$88 () utt8)
(declare-fun z$127 () utt8)
(declare-fun z$129 () utt8)
(declare-fun z$131 () utt8)
(declare-fun z$133 () utt8)
(declare-fun z$362 () utt8)
(declare-fun z$958 () utt8)
(declare-fun z$747 () utt8)
(declare-fun z$1352 () utt8)
(declare-fun z$1228 () utt8)
(declare-fun z$357 () utt8)
(declare-fun z$1372 () utt8)
(declare-fun z$970 () utt8)
(declare-fun z$1492 () utt8)
(declare-fun ctl_b1 () Bool)
(declare-fun z$1 () Bool)
(declare-fun ctl_b2 () Bool)
(declare-fun z$3 () Bool)
(declare-fun ctl_b3 () Bool)
(declare-fun z$5 () Bool)
(declare-fun z$8 () Bool)
(declare-fun z$10 () Bool)
(declare-fun z$12 () Bool)
(declare-fun im.p1_ctl_2 () Bool)
(declare-fun z$14 () Bool)
(declare-fun z$16 () Bool)
(declare-fun im.p2_ctl_2 () Bool)
(declare-fun z$18 () Bool)
(declare-fun z$20 () Bool)
(declare-fun z$22 () Bool)
(declare-fun z$24 () Bool)
(declare-fun z$26 () Bool)
(declare-fun z$28 () Bool)
(declare-fun z$30 () Bool)
(declare-fun z$32 () Bool)
(declare-fun z$34 () Bool)
(declare-fun z$36 () Bool)
(declare-fun z$38 () Bool)
(declare-fun z$40 () Bool)
(declare-fun Extract_1_0_0_8 (utt8) Bool)
(declare-fun z$138 () Bool)
(declare-fun z$152 () Bool)
(declare-fun prop () Bool)
(declare-fun z$153 () Bool)
(declare-fun im.reset () Bool)
(declare-fun z$46 () Bool)
(declare-fun z$59 () Bool)
(declare-fun z$71 () Bool)
(declare-fun ctl_b2$next () Bool)
(declare-fun z$73 () Bool)
(declare-fun z$86 () Bool)
(declare-fun z$105 () Bool)
(declare-fun im.p2_ctl_2$next () Bool)
(declare-fun z$107 () Bool)
(declare-fun z$112 () Bool)
(declare-fun z$121 () Bool)
(declare-fun z$125 () Bool)
(declare-fun z$166 () Bool)
(declare-fun ctl_b3$next () Bool)
(declare-fun z$180 () Bool)
(declare-fun prop$next () Bool)
(declare-fun z$181 () Bool)
(declare-fun z$197 () Bool)
(declare-fun z$198 () Bool)
(declare-fun z$199 () Bool)
(declare-fun z$200 () Bool)
(declare-fun z$202 () Bool)
(declare-fun z$191 () Bool)
(declare-fun z$196 () Bool)
(declare-fun z$201 () Bool)
(declare-fun z$234 () Bool)
(declare-fun z$236 () Bool)
(declare-fun z$233 () Bool)
(declare-fun z$235 () Bool)
(declare-fun z$361 () Bool)
(declare-fun z$386 () Bool)
(declare-fun z$387 () Bool)
(declare-fun z$389 () Bool)
(declare-fun z$385 () Bool)
(declare-fun z$388 () Bool)
(declare-fun z$410 () Bool)
(declare-fun z$422 () Bool)
(declare-fun z$451 () Bool)
(declare-fun z$455 () Bool)
(declare-fun z$452 () Bool)
(declare-fun z$453 () Bool)
(declare-fun z$454 () Bool)
(declare-fun z$459 () Bool)
(declare-fun z$55 () Bool)
(declare-fun ctl_b () Bool)
(declare-fun z$67 () Bool)
(declare-fun ctl_b1$next () Bool)
(declare-fun z$69 () Bool)
(declare-fun z$82 () Bool)
(declare-fun z$95 () Bool)
(declare-fun im.p1_ctl_2$next () Bool)
(declare-fun z$97 () Bool)
(declare-fun z$99 () Bool)
(declare-fun z$101 () Bool)
(declare-fun z$103 () Bool)
(declare-fun z$719 () Bool)
(declare-fun z$324 () Bool)
(declare-fun z$237 () Bool)
(declare-fun z$275 () Bool)
(declare-fun z$50 () Bool)
(declare-fun z$63 () Bool)
(declare-fun z$90 () Bool)
(declare-fun z$135 () Bool)
(declare-fun z$721 () Bool)
(declare-fun z$722 () Bool)
(declare-fun z$498 () Bool)
(declare-fun z$253 () Bool)
(declare-fun z$790 () Bool)
(declare-fun z$793 () Bool)
(declare-fun z$533 () Bool)
(declare-fun z$392 () Bool)
(declare-fun z$791 () Bool)
(declare-fun z$792 () Bool)
(declare-fun z$803 () Bool)
(declare-fun z$755 () Bool)
(declare-fun z$830 () Bool)
(declare-fun z$831 () Bool)
(declare-fun z$833 () Bool)
(declare-fun z$752 () Bool)
(declare-fun z$829 () Bool)
(declare-fun z$832 () Bool)
(declare-fun z$959 () Bool)
(declare-fun z$245 () Bool)
(declare-fun z$961 () Bool)
(declare-fun z$962 () Bool)
(declare-fun z$748 () Bool)
(declare-fun z$1027 () Bool)
(declare-fun z$1028 () Bool)
(declare-fun z$443 () Bool)
(declare-fun z$336 () Bool)
(declare-fun z$1099 () Bool)
(declare-fun z$1103 () Bool)
(declare-fun z$1100 () Bool)
(declare-fun z$1101 () Bool)
(declare-fun z$1102 () Bool)
(declare-fun z$1108 () Bool)
(declare-fun z$1045 () Bool)
(declare-fun z$326 () Bool)
(declare-fun z$1127 () Bool)
(declare-fun z$1131 () Bool)
(declare-fun z$1128 () Bool)
(declare-fun z$1129 () Bool)
(declare-fun z$1130 () Bool)
(declare-fun z$1136 () Bool)
(declare-fun z$273 () Bool)
(declare-fun z$468 () Bool)
(declare-fun z$286 () Bool)
(declare-fun z$316 () Bool)
(declare-fun z$1155 () Bool)
(declare-fun z$1156 () Bool)
(declare-fun z$266 () Bool)
(declare-fun z$467 () Bool)
(declare-fun z$1183 () Bool)
(declare-fun z$1187 () Bool)
(declare-fun z$1141 () Bool)
(declare-fun z$1184 () Bool)
(declare-fun z$1185 () Bool)
(declare-fun z$1186 () Bool)
(declare-fun z$1191 () Bool)
(declare-fun z$1134 () Bool)
(declare-fun z$1206 () Bool)
(declare-fun z$1208 () Bool)
(declare-fun z$1139 () Bool)
(declare-fun z$1207 () Bool)
(declare-fun z$1211 () Bool)
(declare-fun z$1161 () Bool)
(declare-fun z$280 () Bool)
(declare-fun z$1224 () Bool)
(declare-fun z$1225 () Bool)
(declare-fun z$1073 () Bool)
(declare-fun z$1249 () Bool)
(declare-fun z$1250 () Bool)
(declare-fun z$1307 () Bool)
(declare-fun z$1353 () Bool)
(declare-fun z$1253 () Bool)
(declare-fun z$444 () Bool)
(declare-fun z$1355 () Bool)
(declare-fun z$1356 () Bool)
(declare-fun z$1480 () Bool)
(declare-fun z$1482 () Bool)
(declare-fun z$1483 () Bool)
(declare-fun p$0 () Bool)
(declare-fun z$756 () Bool)
(declare-fun p$1 () Bool)
(declare-fun p$2 () Bool)
(declare-fun z$806 () Bool)
(declare-fun p$3 () Bool)
(declare-fun z$519 () Bool)
(declare-fun z$528 () Bool)
(declare-fun p$4 () Bool)
(declare-fun p$5 () Bool)
(declare-fun z$530 () Bool)
(declare-fun z$531 () Bool)
(declare-fun p$6 () Bool)
(declare-fun z$539 () Bool)
(declare-fun p$7 () Bool)
(declare-fun p$8 () Bool)
(declare-fun z$541 () Bool)
(declare-fun z$542 () Bool)
(declare-fun p$9 () Bool)
(declare-fun p$10 () Bool)
(declare-fun z$545 () Bool)
(declare-fun z$546 () Bool)
(declare-fun p$11 () Bool)
(declare-fun p$12 () Bool)
(declare-fun z$551 () Bool)
(declare-fun z$246 () Bool)
(declare-fun p$13 () Bool)
(declare-fun z$250 () Bool)
(declare-fun p$14 () Bool)
(declare-fun im.reset$next () Bool)
(declare-fun z$291 () Bool)
(declare-fun p$15 () Bool)
(declare-fun z$354 () Bool)
(declare-fun p$16 () Bool)
(declare-fun z$562 () Bool)
(declare-fun p$17 () Bool)
(declare-fun p$18 () Bool)
(declare-fun z$364 () Bool)
(declare-fun z$365 () Bool)
(declare-fun p$19 () Bool)
(declare-fun p$20 () Bool)
(declare-fun z$366 () Bool)
(declare-fun z$570 () Bool)
(declare-fun p$21 () Bool)
(declare-fun p$22 () Bool)
(declare-fun z$758 () Bool)
(declare-fun p$23 () Bool)
(declare-fun z$757 () Bool)
(declare-fun p$24 () Bool)
(declare-fun z$1373 () Bool)
(declare-fun p$25 () Bool)
(declare-fun z$971 () Bool)
(declare-fun z$1374 () Bool)
(declare-fun p$26 () Bool)
(declare-fun p$27 () Bool)
(declare-fun z$1493 () Bool)
(assert
 (and (distinct z$n0s8 z$n1s8 z$n137s8 z$n48s8 z$n196s8 z$n158s8 z$n26s8 z$n123s8 z$n140s8 z$n2s8 z$n5s8 z$n7s8 z$n231s8 z$n8s8 z$n187s8 z$n97s8 z$n10s8 z$n100s8 z$n254s8 z$n96s8 z$n252s8 z$n98s8 z$n248s8 z$n4s8 z$n16s8 z$n3s8 z$n6s8 z$n204s8 z$n13s8 z$n141s8 z$n128s8 z$n138s8 z$n65s8 z$n72s8 z$n144s8 z$n129s8 z$n41s8 z$n134s8 z$n242s8 z$n124s8 z$n17s8 z$n95s8 z$n217s8 z$n194s8 z$n255s8 z$n89s8 z$n33s8 z$n11s8 z$n24s8 z$n142s8 z$n127s8 z$n253s8 z$n68s8 z$n28s8 z$n223s8 z$n192s8 z$n110s8 z$n238s8 z$n64s8 z$n161s8 z$n131s8 z$n235s8 z$n14s8 z$n132s8 z$n126s8 z$n19s8 z$n193s8 z$n66s8 z$n62s8 z$n164s8) true))
(assert
 (= z$1 (not ctl_b1)))
(assert
 z$1)
(assert
 (= z$3 (not ctl_b2)))
(assert
 z$3)
(assert
 (= z$5 (not ctl_b3)))
(assert
 z$5)
(assert
 (let (($x301 (= im.p1_a z$n0s8)))
 (= z$8 $x301)))
(assert
 z$8)
(assert
 (let (($x318 (= im.p1_b z$n0s8)))
 (= z$10 $x318)))
(assert
 z$10)
(assert
 (let (($x329 (= im.p1_c z$n0s8)))
 (= z$12 $x329)))
(assert
 z$12)
(assert
 (= z$14 (not im.p1_ctl_2)))
(assert
 z$14)
(assert
 (let (($x344 (= im.p2_c z$n0s8)))
 (= z$16 $x344)))
(assert
 z$16)
(assert
 (= z$18 (not im.p2_ctl_2)))
(assert
 z$18)
(assert
 (let (($x24 (= im.p2_m z$n0s8)))
 (= z$20 $x24)))
(assert
 z$20)
(assert
 (let (($x159 (= im.p3_n z$n0s8)))
 (= z$22 $x159)))
(assert
 z$22)
(assert
 (let (($x240 (= ra1 z$n0s8)))
 (= z$24 $x240)))
(assert
 z$24)
(assert
 (let (($x308 (= ra2 z$n0s8)))
 (= z$26 $x308)))
(assert
 z$26)
(assert
 (let (($x150 (= ra3 z$n0s8)))
 (= z$28 $x150)))
(assert
 z$28)
(assert
 (let (($x1161 (= rb1 z$n0s8)))
 (= z$30 $x1161)))
(assert
 z$30)
(assert
 (let (($x1095 (= rb2 z$n0s8)))
 (= z$32 $x1095)))
(assert
 z$32)
(assert
 (let (($x147 (= rb3 z$n0s8)))
 (= z$34 $x147)))
(assert
 z$34)
(assert
 (let (($x1099 (= rc1 z$n0s8)))
 (= z$36 $x1099)))
(assert
 z$36)
(assert
 (let (($x1054 (= rc2 z$n0s8)))
 (= z$38 $x1054)))
(assert
 z$38)
(assert
 (let (($x433 (= rc3 z$n0s8)))
 (= z$40 $x433)))
(assert
 z$40)
(assert
 (let (($x181 (Extract_1_0_0_8 ra3)))
 (= z$138 $x181)))
(assert
 (let ((?x259 (Add_8_8_8 ra3 rb3)))
 (= z$140 ?x259)))
(assert
 (let ((?x429 (Sub_8_8_8 ra3 rb3)))
 (= z$142 ?x429)))
(assert
 (= z$144 (ite z$138 z$140 z$142)))
(assert
 (let ((?x1113 (Add_8_8_8 z$144 rc3)))
 (= z$146 ?x1113)))
(assert
 (let ((?x1062 (Sub_8_8_8 z$144 rc3)))
 (= z$148 ?x1062)))
(assert
 (= z$150 (ite ctl_b3 z$146 z$148)))
(assert
 (let (($x1021 (= z$150 im.p3_n)))
 (= z$152 $x1021)))
(assert
 (= z$153 (= prop z$152)))
(assert
 z$153)
(assert
 prop)
(assert
 (let ((?x1177 (ite im.reset z$n0s8 rb1)))
 (= z$44 ?x1177)))
(assert
 (let (($x437 (= rb2$next z$44)))
 (= z$46 $x437)))
(assert
 z$46)
(assert
 (let ((?x1190 (ite im.reset z$n0s8 rc1)))
 (= z$57 ?x1190)))
(assert
 (let (($x1032 (= rc2$next z$57)))
 (= z$59 $x1032)))
(assert
 z$59)
(assert
 (= z$71 (ite im.reset false ctl_b1)))
(assert
 (= z$73 (= ctl_b2$next z$71)))
(assert
 z$73)
(assert
 (let ((?x847 (ite im.reset z$n0s8 ra1)))
 (= z$84 ?x847)))
(assert
 (let (($x1703 (= ra2$next z$84)))
 (= z$86 $x1703)))
(assert
 z$86)
(assert
 (= z$105 (ite im.reset false im.p1_ctl_2)))
(assert
 (= z$107 (= im.p2_ctl_2$next z$105)))
(assert
 z$107)
(assert
 (let ((?x1632 (BitWiseAnd_8_8_8 im.p1_a z$n1s8)))
 (= z$110 ?x1632)))
(assert
 (let (($x523 (= z$110 z$n1s8)))
 (= z$112 $x523)))
(assert
 (let ((?x937 (Add_8_8_8 im.p1_a im.p1_b)))
 (= z$113 ?x937)))
(assert
 (let ((?x799 (Sub_8_8_8 im.p1_a im.p1_b)))
 (= z$115 ?x799)))
(assert
 (= z$117 (ite z$112 z$113 z$115)))
(assert
 (let ((?x1224 (ite im.reset z$n0s8 z$117)))
 (= z$119 ?x1224)))
(assert
 (let (($x893 (= im.p2_m$next z$119)))
 (= z$121 $x893)))
(assert
 z$121)
(assert
 (let ((?x889 (ite im.reset z$n0s8 im.p1_c)))
 (= z$123 ?x889)))
(assert
 (let (($x885 (= im.p2_c$next z$123)))
 (= z$125 $x885)))
(assert
 z$125)
(assert
 (let (($x382 (Extract_1_0_0_8 ra3$next)))
 (= z$166 $x382)))
(assert
 (let ((?x903 (Add_8_8_8 ra3$next rb3$next)))
 (= z$168 ?x903)))
(assert
 (let ((?x513 (Sub_8_8_8 ra3$next rb3$next)))
 (= z$170 ?x513)))
(assert
 (let ((?x879 (ite z$166 z$168 z$170)))
 (= z$172 ?x879)))
(assert
 (let ((?x1497 (Add_8_8_8 z$172 rc3$next)))
 (= z$174 ?x1497)))
(assert
 (let ((?x852 (Sub_8_8_8 z$172 rc3$next)))
 (= z$176 ?x852)))
(assert
 (let ((?x17 (ite ctl_b3$next z$174 z$176)))
 (= z$178 ?x17)))
(assert
 (let (($x44 (= z$178 im.p3_n$next)))
 (= z$180 $x44)))
(assert
 (= z$181 (= prop$next z$180)))
(assert
 z$181)
(assert
 (= z$197 (and (distinct z$170 z$n0s8) true)))
(assert
 (let (($x111 (= rb3$next z$n0s8)))
 (= z$198 $x111)))
(assert
 (let (($x115 (= ra3$next z$n0s8)))
 (= z$199 $x115)))
(assert
 (= z$200 (and z$197 z$198 z$199)))
(assert
 (= z$202 (not z$200)))
(assert
 z$202)
(assert
 (= z$191 (and (distinct z$142 z$n0s8) true)))
(assert
 (= z$196 (and z$191 z$34 z$28)))
(assert
 (= z$201 (not z$196)))
(assert
 z$201)
(assert
 (= z$234 (and z$166 z$199)))
(assert
 (= z$236 (not z$234)))
(assert
 z$236)
(assert
 (= z$233 (and z$138 z$28)))
(assert
 (= z$235 (not z$233)))
(assert
 z$235)
(assert
 (let ((?x2199 (BitWiseAnd_8_8_8 im.p1_a$next z$n1s8)))
 (= z$350 ?x2199)))
(assert
 (let (($x1674 (= z$350 z$n1s8)))
 (= z$361 $x1674)))
(assert
 (let (($x1667 (= im.p1_a$next z$n0s8)))
 (= z$386 $x1667)))
(assert
 (= z$387 (and z$361 z$386)))
(assert
 (= z$389 (not z$387)))
(assert
 z$389)
(assert
 (= z$385 (and z$112 z$8)))
(assert
 (= z$388 (not z$385)))
(assert
 z$388)
(assert
 (let (($x1622 (= z$170 im.p3_n$next)))
 (= z$410 $x1622)))
(assert
 (let (($x2980 (= rb3$next im.p3_n$next)))
 (= z$422 $x2980)))
(assert
 (= z$451 (and z$166 z$410 z$422)))
(assert
 (= z$455 (not z$451)))
(assert
 z$455)
(assert
 (let (($x1749 (= z$142 im.p3_n)))
 (= z$452 $x1749)))
(assert
 (let (($x1107 (= rb3 im.p3_n)))
 (= z$453 $x1107)))
(assert
 (= z$454 (and z$138 z$452 z$453)))
(assert
 (= z$459 (not z$454)))
(assert
 z$459)
(assert
 (let ((?x1366 (ite im.reset z$n0s8 c)))
 (= z$53 ?x1366)))
(assert
 (let (($x1836 (= rc1$next z$53)))
 (= z$55 $x1836)))
(assert
 z$55)
(assert
 (= z$67 (ite im.reset false ctl_b)))
(assert
 (= z$69 (= ctl_b1$next z$67)))
(assert
 z$69)
(assert
 (let ((?x1924 (ite im.reset z$n0s8 a)))
 (= z$80 ?x1924)))
(assert
 (let (($x1919 (= ra1$next z$80)))
 (= z$82 $x1919)))
(assert
 z$82)
(assert
 (let ((?x3324 (ite im.reset z$n0s8 b)))
 (= z$93 ?x3324)))
(assert
 (let (($x1195 (= rb1$next z$93)))
 (= z$95 $x1195)))
(assert
 z$95)
(assert
 (= z$97 (= im.p1_ctl_2$next z$67)))
(assert
 z$97)
(assert
 (let (($x816 (= im.p1_a$next z$80)))
 (= z$99 $x816)))
(assert
 z$99)
(assert
 (let (($x542 (= im.p1_b$next z$93)))
 (= z$101 $x542)))
(assert
 z$101)
(assert
 (let (($x1152 (= im.p1_c$next z$53)))
 (= z$103 $x1152)))
(assert
 z$103)
(assert
 (let ((?x5742 (Sub_8_8_8 ra2 rb2)))
 (= z$718 ?x5742)))
(assert
 (let (($x5101 (= im.p2_m z$718)))
 (= z$719 $x5101)))
(assert
 (let (($x1487 (= im.p2_c rc2)))
 (= z$324 $x1487)))
(assert
 (let (($x2736 (not z$166)))
 (= z$237 $x2736)))
(assert
 (= z$275 (and (distinct im.p3_n$next z$176) true)))
(assert
 (let ((?x3206 (ite im.reset z$n0s8 rb2)))
 (= z$48 ?x3206)))
(assert
 (let (($x2515 (= rb3$next z$48)))
 (= z$50 $x2515)))
(assert
 (let ((?x1607 (ite im.reset z$n0s8 rc2)))
 (= z$61 ?x1607)))
(assert
 (let (($x2344 (= rc3$next z$61)))
 (= z$63 $x2344)))
(assert
 (let ((?x3164 (ite im.reset z$n0s8 ra2)))
 (= z$88 ?x3164)))
(assert
 (let (($x3163 (= ra3$next z$88)))
 (= z$90 $x3163)))
(assert
 (let ((?x3393 (Add_8_8_8 im.p2_m im.p2_c)))
 (= z$127 ?x3393)))
(assert
 (let ((?x2755 (Sub_8_8_8 im.p2_m im.p2_c)))
 (= z$129 ?x2755)))
(assert
 (= z$131 (ite im.p2_ctl_2 z$127 z$129)))
(assert
 (let ((?x2813 (ite im.reset z$n0s8 z$131)))
 (= z$133 ?x2813)))
(assert
 (let (($x619 (= im.p3_n$next z$133)))
 (= z$135 $x619)))
(assert
 (let (($x5361 (and z$719 z$324 z$18 z$237 z$275 z$50 z$63 z$90 z$135)))
 (= z$721 $x5361)))
(assert
 (= z$722 (not z$721)))
(assert
 z$722)
(assert
 (= z$498 (and (distinct z$110 rb1) true)))
(assert
 (= z$253 (and (distinct z$110 z$n1s8) true)))
(assert
 (= z$790 (and z$498 z$253 z$30)))
(assert
 (= z$793 (not z$790)))
(assert
 z$793)
(assert
 (= z$533 (and (distinct z$350 rb1$next) true)))
(assert
 (= z$392 (and (distinct z$350 z$n1s8) true)))
(assert
 (let (($x5639 (= rb1$next z$n0s8)))
 (= z$791 $x5639)))
(assert
 (= z$792 (and z$533 z$392 z$791)))
(assert
 (= z$803 (not z$792)))
(assert
 z$803)
(assert
 (let ((?x1162 (Add_8_8_8 im.p1_a$next im.p1_b$next)))
 (= z$362 ?x1162)))
(assert
 (= z$755 (and (distinct rb1$next z$362) true)))
(assert
 (let (($x6587 (= im.p1_b$next z$n0s8)))
 (= z$830 $x6587)))
(assert
 (= z$831 (and z$755 z$386 z$830 z$791)))
(assert
 (= z$833 (not z$831)))
(assert
 z$833)
(assert
 (= z$752 (and (distinct rb1 z$113) true)))
(assert
 (= z$829 (and z$752 z$8 z$10 z$30)))
(assert
 (= z$832 (not z$829)))
(assert
 z$832)
(assert
 (let ((?x6789 (BitWiseAnd_8_8_8 ra2 z$n1s8)))
 (= z$958 ?x6789)))
(assert
 (let (($x4667 (= z$958 z$n1s8)))
 (= z$959 $x4667)))
(assert
 (let (($x516 (not im.reset)))
 (= z$245 $x516)))
(assert
 (= z$961 (and z$959 z$245 z$237 z$90)))
(assert
 (= z$962 (not z$961)))
(assert
 z$962)
(assert
 (let ((?x1333 (Sub_8_8_8 ra2$next rb2$next)))
 (= z$747 ?x1333)))
(assert
 (= z$748 (and (distinct im.p2_m$next z$747) true)))
(assert
 (= z$1027 (and im.reset z$748 z$46 z$86 z$121)))
(assert
 (= z$1028 (not z$1027)))
(assert
 z$1028)
(assert
 (let (($x4298 (= z$176 z$174)))
 (= z$443 $x4298)))
(assert
 (let (($x7031 (= rc3$next ra3$next)))
 (= z$336 $x7031)))
(assert
 (= z$1099 (and z$166 z$443 z$336)))
(assert
 (= z$1103 (not z$1099)))
(assert
 z$1103)
(assert
 (let (($x6051 (= z$148 z$146)))
 (= z$1100 $x6051)))
(assert
 (let (($x5748 (= rc3 ra3)))
 (= z$1101 $x5748)))
(assert
 (= z$1102 (and z$138 z$1100 z$1101)))
(assert
 (= z$1108 (not z$1102)))
(assert
 z$1108)
(assert
 (= z$1045 (and (distinct ra3$next z$174) true)))
(assert
 (let (($x3228 (= rb3$next rc3$next)))
 (= z$326 $x3228)))
(assert
 (= z$1127 (and z$1045 z$326 z$443)))
(assert
 (= z$1131 (not z$1127)))
(assert
 z$1131)
(assert
 (= z$1128 (and (distinct ra3 z$146) true)))
(assert
 (let (($x5985 (= rb3 rc3)))
 (= z$1129 $x5985)))
(assert
 (= z$1130 (and z$1128 z$1129 z$1100)))
(assert
 (= z$1136 (not z$1130)))
(assert
 z$1136)
(assert
 (= z$273 (and (distinct ra3$next im.p3_n$next) true)))
(assert
 (let (($x4728 (= z$168 im.p3_n$next)))
 (= z$468 $x4728)))
(assert
 (= z$286 (and (distinct ra2 im.p2_m) true)))
(assert
 (let (($x479 (= im.p2_c rb2)))
 (= z$316 $x479)))
(assert
 (= z$1155 (and z$135 z$90 z$50 z$273 z$468 z$286 z$410 z$316)))
(assert
 (= z$1156 (not z$1155)))
(assert
 z$1156)
(assert
 (= z$266 (and (distinct rb3$next rc3$next) true)))
(assert
 (let (($x3935 (= z$176 ra3$next)))
 (= z$467 $x3935)))
(assert
 (= z$1183 (and z$266 z$410 z$467 z$468)))
(assert
 (= z$1187 (not z$1183)))
(assert
 z$1187)
(assert
 (= z$1141 (and (distinct rb3 rc3) true)))
(assert
 (let (($x4621 (= z$148 ra3)))
 (= z$1184 $x4621)))
(assert
 (let (($x6928 (= z$140 im.p3_n)))
 (= z$1185 $x6928)))
(assert
 (= z$1186 (and z$1141 z$452 z$1184 z$1185)))
(assert
 (= z$1191 (not z$1186)))
(assert
 z$1191)
(assert
 (let (($x6310 (= ra3$next z$174)))
 (= z$1134 $x6310)))
(assert
 (= z$1206 (and z$1134 z$467 z$266)))
(assert
 (= z$1208 (not z$1206)))
(assert
 z$1208)
(assert
 (let (($x2161 (= ra3 z$146)))
 (= z$1139 $x2161)))
(assert
 (= z$1207 (and z$1139 z$1184 z$1141)))
(assert
 (= z$1211 (not z$1207)))
(assert
 z$1211)
(assert
 (let (($x4223 (= im.p2_m ra2)))
 (= z$1161 $x4223)))
(assert
 (= z$280 (and (distinct rb2 im.p2_c) true)))
(assert
 (let (($x3903 (and z$135 z$90 z$63 z$50 z$1161 z$443 z$410 z$324 z$280 z$245)))
 (= z$1224 $x3903)))
(assert
 (= z$1225 (not z$1224)))
(assert
 z$1225)
(assert
 (= z$1073 (and (distinct z$127 z$129) true)))
(assert
 (= z$1249 (and z$63 z$1073 z$443 z$324 z$245)))
(assert
 (= z$1250 (not z$1249)))
(assert
 z$1250)
(assert
 (let (($x8020 (= rb2 z$n1s8)))
 (= z$1307 $x8020)))
(assert
 (let ((?x3893 (Add_8_8_8 ra2 z$n1s8)))
 (= z$1352 ?x3893)))
(assert
 (let (($x7485 (= im.p2_m z$1352)))
 (= z$1353 $x7485)))
(assert
 (let (($x632 (= z$127 z$129)))
 (= z$1253 $x632)))
(assert
 (= z$444 (and (distinct im.p3_n$next z$174) true)))
(assert
 (let (($x8394 (and z$1307 z$1353 z$1253 z$324 z$166 z$444 z$50 z$63 z$90 z$135)))
 (= z$1355 $x8394)))
(assert
 (= z$1356 (not z$1355)))
(assert
 z$1356)
(assert
 (let ((?x4559 (Add_8_8_8 ra2 rb2)))
 (= z$1228 ?x4559)))
(assert
 (let (($x5367 (= im.p2_m z$1228)))
 (= z$1480 $x5367)))
(assert
 (let (($x7523 (and z$1480 z$1253 z$324 z$166 z$444 z$50 z$63 z$90 z$135)))
 (= z$1482 $x7523)))
(assert
 (= z$1483 (not z$1482)))
(assert
 z$1483)
(assert
 (let ((?x813 (Sub_8_8_8 im.p1_a$next im.p1_b$next)))
 (let (($x2560 (= z$357 ?x813)))
 (=> p$0 $x2560))))
(assert
 (let ((?x1162 (Add_8_8_8 im.p1_a$next im.p1_b$next)))
 (let (($x4892 (= z$362 ?x1162)))
 (=> p$0 $x4892))))
(assert
 (=> p$0 (= z$756 (and (distinct z$357 z$362) true))))
(assert
 (=> p$0 z$756))
(assert
 (let ((?x1162 (Add_8_8_8 im.p1_a$next im.p1_b$next)))
 (let (($x4892 (= z$362 ?x1162)))
 (=> p$1 $x4892))))
(assert
 (let (($x1925 (= z$755 (and (distinct rb1$next z$362) true))))
 (=> p$1 $x1925)))
(assert
 (=> p$1 z$755))
(assert
 (let ((?x2199 (BitWiseAnd_8_8_8 im.p1_a$next z$n1s8)))
 (let (($x897 (= z$350 ?x2199)))
 (=> p$2 $x897))))
(assert
 (=> p$2 (= z$806 (= rb1$next z$350))))
(assert
 (=> p$2 z$806))
(assert
 (let ((?x2199 (BitWiseAnd_8_8_8 im.p1_a$next z$n1s8)))
 (let (($x897 (= z$350 ?x2199)))
 (=> p$3 $x897))))
(assert
 (=> p$3 (= z$519 (and (distinct z$350 z$n1s8) true))))
(assert
 (=> p$3 z$519))
(assert
 (=> p$4 (= z$528 (and (distinct rb1$next z$n1s8) true))))
(assert
 (=> p$4 z$528))
(assert
 (let ((?x813 (Sub_8_8_8 im.p1_a$next im.p1_b$next)))
 (let (($x2560 (= z$357 ?x813)))
 (=> p$5 $x2560))))
(assert
 (=> p$5 (= z$530 (and (distinct z$357 z$n1s8) true))))
(assert
 (=> p$5 z$530))
(assert
 (=> p$6 (= z$531 (and (distinct ra1$next z$n1s8) true))))
(assert
 (=> p$6 z$531))
(assert
 (=> p$7 (= z$539 (and (distinct rb1$next rc1$next) true))))
(assert
 (=> p$7 z$539))
(assert
 (let ((?x813 (Sub_8_8_8 im.p1_a$next im.p1_b$next)))
 (let (($x2560 (= z$357 ?x813)))
 (=> p$8 $x2560))))
(assert
 (=> p$8 (= z$541 (and (distinct rb1$next z$357) true))))
(assert
 (=> p$8 z$541))
(assert
 (=> p$9 (= z$542 (and (distinct rb1$next ra1$next) true))))
(assert
 (=> p$9 z$542))
(assert
 (let ((?x813 (Sub_8_8_8 im.p1_a$next im.p1_b$next)))
 (let (($x2560 (= z$357 ?x813)))
 (=> p$10 $x2560))))
(assert
 (=> p$10 (= z$545 (and (distinct rc1$next z$357) true))))
(assert
 (=> p$10 z$545))
(assert
 (=> p$11 (= z$546 (and (distinct rc1$next ra1$next) true))))
(assert
 (=> p$11 z$546))
(assert
 (let ((?x813 (Sub_8_8_8 im.p1_a$next im.p1_b$next)))
 (let (($x2560 (= z$357 ?x813)))
 (=> p$12 $x2560))))
(assert
 (=> p$12 (= z$551 (and (distinct z$357 ra1$next) true))))
(assert
 (=> p$12 z$551))
(assert
 (=> p$13 (= z$246 (not ctl_b1$next))))
(assert
 (=> p$13 z$246))
(assert
 (=> p$14 (= z$250 (not im.p1_ctl_2$next))))
(assert
 (=> p$14 z$250))
(assert
 (=> p$15 (= z$291 (not im.reset$next))))
(assert
 (=> p$15 z$291))
(assert
 (=> p$16 (= z$354 (= im.p1_c$next rc1$next))))
(assert
 (=> p$16 z$354))
(assert
 (=> p$17 (= z$562 (= im.p1_a$next ra1$next))))
(assert
 (=> p$17 z$562))
(assert
 (let ((?x1162 (Add_8_8_8 im.p1_a$next im.p1_b$next)))
 (let (($x4892 (= z$362 ?x1162)))
 (=> p$18 $x4892))))
(assert
 (=> p$18 (= z$364 (and (distinct rc1$next z$362) true))))
(assert
 (=> p$18 z$364))
(assert
 (=> p$19 (= z$365 (and (distinct rc1$next z$n1s8) true))))
(assert
 (=> p$19 z$365))
(assert
 (let ((?x1162 (Add_8_8_8 im.p1_a$next im.p1_b$next)))
 (let (($x4892 (= z$362 ?x1162)))
 (=> p$20 $x4892))))
(assert
 (=> p$20 (= z$366 (and (distinct z$362 z$n1s8) true))))
(assert
 (=> p$20 z$366))
(assert
 (=> p$21 (= z$570 (= im.p1_b$next rb1$next))))
(assert
 (=> p$21 z$570))
(assert
 (let ((?x1333 (Sub_8_8_8 ra2$next rb2$next)))
 (let (($x6538 (= z$747 ?x1333)))
 (=> p$22 $x6538))))
(assert
 (=> p$22 (= z$758 (= im.p2_m$next z$747))))
(assert
 (=> p$22 z$758))
(assert
 (let ((?x1162 (Add_8_8_8 im.p1_a$next im.p1_b$next)))
 (let (($x4892 (= z$362 ?x1162)))
 (=> p$23 $x4892))))
(assert
 (=> p$23 (= z$757 (and (distinct ra1$next z$362) true))))
(assert
 (=> p$23 z$757))
(assert
 (let ((?x8114 (Add_8_8_8 ra2$next z$n1s8)))
 (let (($x7145 (= z$1372 ?x8114)))
 (=> p$24 $x7145))))
(assert
 (=> p$24 (= z$1373 (and (distinct im.p2_m$next z$1372) true))))
(assert
 (=> p$24 z$1373))
(assert
 (let ((?x2384 (BitWiseAnd_8_8_8 ra2$next z$n1s8)))
 (let (($x6194 (= z$970 ?x2384)))
 (=> p$25 $x6194))))
(assert
 (=> p$25 (= z$971 (and (distinct z$970 z$n1s8) true))))
(assert
 (=> p$25 z$971))
(assert
 (=> p$26 (= z$1374 (and (distinct rb2$next z$n1s8) true))))
(assert
 (=> p$26 z$1374))
(assert
 (let ((?x1808 (Add_8_8_8 ra2$next rb2$next)))
 (let (($x4158 (= z$1492 ?x1808)))
 (=> p$27 $x4158))))
(assert
 (=> p$27 (= z$1493 (and (distinct im.p2_m$next z$1492) true))))
(assert
 (=> p$27 z$1493))
(check-sat)
(assert p$0)
(assert p$1)
(assert p$2)
(assert p$3)
(assert p$4)
(assert p$5)
(assert p$6)
(assert p$7)
(assert p$8)
(assert p$9)
(assert p$10)
(assert p$11)
(assert p$12)
(assert p$13)
(assert p$14)
(assert p$15)
(assert p$16)
(assert p$17)
(assert p$18)
(assert p$19)
(assert p$20)
(assert p$21)
(assert p$22)
(assert p$23)
(assert p$24)
(assert p$25)
(assert p$26)
(assert p$27)
(set-info :status unsat)
(check-sat)
(exit)
